60
1 0 6
2 0 13
2 1 11
3 0 13
3 1 12
3 2 10
4 0 7
4 1 5
4 2 3
4 3 3
5 0 5
5 1 10
5 2 5
5 3 11
5 4 3
6 0 8
6 1 13
6 2 11
6 3 13
6 4 3
6 5 2
7 0 10
7 1 10
7 2 11
7 3 7
7 4 1
7 5 7
7 6 9
8 0 6
8 1 7
8 2 7
8 3 13
8 4 9
8 5 10
8 6 9
8 7 6
9 0 10
9 1 10
9 2 12
9 3 7
9 4 12
9 5 10
9 6 8
9 7 6
9 8 6
10 0 12
10 1 6
10 2 8
10 3 12
10 4 7
10 5 9
10 6 5
10 7 1
10 8 13
10 9 12
11 0 11
11 1 2
11 2 3
11 3 11
11 4 8
11 5 6
11 6 12
11 7 5
11 8 8
11 9 9
11 10 3
12 0 3
12 1 12
12 2 10
12 3 1
12 4 4
12 5 12
12 6 2
12 7 3
12 8 10
12 9 13
12 10 8
12 11 3
13 0 12
13 1 7
13 2 6
13 3 4
13 4 4
13 5 6
13 6 8
13 7 9
13 8 7
13 9 10
13 10 2
13 11 4
13 12 8
14 0 9
14 1 1
14 2 3
14 3 10
14 4 10
14 5 9
14 6 9
14 7 3
14 8 9
14 9 11
14 10 10
14 11 9
14 12 2
14 13 12
15 0 3
15 1 11
15 2 11
15 3 5
15 4 9
15 5 4
15 6 12
15 7 2
15 8 9
15 9 7
15 10 9
15 11 3
15 12 13
15 13 10
15 14 10
16 0 3
16 1 10
16 2 12
16 3 2
16 4 1
16 5 7
16 6 3
16 7 5
16 8 3
16 9 6
16 10 8
16 11 5
16 12 13
16 13 4
16 14 12
16 15 7
17 0 12
17 1 7
17 2 1
17 3 8
17 4 2
17 5 6
17 6 7
17 7 3
17 8 5
17 9 5
17 10 6
17 11 10
17 12 10
17 13 9
17 14 13
17 15 12
17 16 11
18 0 1
18 1 9
18 2 1
18 3 7
18 4 11
18 5 8
18 6 8
18 7 7
18 8 12
18 9 8
18 10 11
18 11 7
18 12 8
18 13 6
18 14 10
18 15 11
18 16 9
18 17 13
19 0 7
19 1 3
19 2 4
19 3 1
19 4 10
19 5 3
19 6 12
19 7 8
19 8 13
19 9 3
19 10 13
19 11 6
19 12 7
19 13 13
19 14 9
19 15 13
19 16 3
19 17 9
19 18 12
20 0 11
20 1 12
20 2 1
20 3 6
20 4 4
20 5 8
20 6 5
20 7 13
20 8 13
20 9 5
20 10 13
20 11 7
20 12 5
20 13 8
20 14 10
20 15 13
20 16 8
20 17 4
20 18 7
20 19 12
21 0 9
21 1 3
21 2 13
21 3 1
21 4 8
21 5 8
21 6 1
21 7 12
21 8 5
21 9 13
21 10 10
21 11 4
21 12 11
21 13 13
21 14 1
21 15 4
21 16 12
21 17 4
21 18 10
21 19 11
21 20 4
22 0 10
22 1 10
22 2 4
22 3 11
22 4 5
22 5 10
22 6 12
22 7 4
22 8 7
22 9 4
22 10 9
22 11 8
22 12 7
22 13 5
22 14 8
22 15 5
22 16 4
22 17 2
22 18 10
22 19 8
22 20 5
22 21 12
23 0 2
23 1 6
23 2 6
23 3 6
23 4 5
23 5 5
23 6 2
23 7 5
23 8 11
23 9 1
23 10 1
23 11 7
23 12 5
23 13 4
23 14 2
23 15 8
23 16 13
23 17 13
23 18 4
23 19 6
23 20 4
23 21 3
23 22 1
24 0 10
24 1 3
24 2 10
24 3 12
24 4 2
24 5 1
24 6 11
24 7 10
24 8 2
24 9 3
24 10 7
24 11 11
24 12 9
24 13 4
24 14 6
24 15 4
24 16 10
24 17 7
24 18 2
24 19 3
24 20 11
24 21 8
24 22 1
24 23 2
25 0 6
25 1 9
25 2 2
25 3 2
25 4 13
25 5 6
25 6 8
25 7 7
25 8 5
25 9 5
25 10 1
25 11 1
25 12 8
25 13 4
25 14 11
25 15 2
25 16 3
25 17 10
25 18 4
25 19 9
25 20 1
25 21 4
25 22 6
25 23 4
25 24 13
26 0 6
26 1 13
26 2 8
26 3 13
26 4 4
26 5 9
26 6 7
26 7 11
26 8 13
26 9 8
26 10 11
26 11 3
26 12 5
26 13 6
26 14 3
26 15 5
26 16 9
26 17 6
26 18 5
26 19 11
26 20 4
26 21 10
26 22 6
26 23 8
26 24 5
26 25 1
27 0 3
27 1 13
27 2 1
27 3 8
27 4 4
27 5 10
27 6 1
27 7 1
27 8 3
27 9 2
27 10 4
27 11 13
27 12 1
27 13 10
27 14 1
27 15 7
27 16 3
27 17 8
27 18 9
27 19 4
27 20 10
27 21 6
27 22 5
27 23 5
27 24 5
27 25 6
27 26 4
28 0 6
28 1 2
28 2 3
28 3 10
28 4 5
28 5 5
28 6 9
28 7 8
28 8 3
28 9 12
28 10 1
28 11 6
28 12 5
28 13 6
28 14 4
28 15 12
28 16 11
28 17 4
28 18 4
28 19 5
28 20 7
28 21 6
28 22 9
28 23 5
28 24 6
28 25 5
28 26 1
28 27 6
29 0 10
29 1 5
29 2 11
29 3 12
29 4 9
29 5 6
29 6 9
29 7 13
29 8 7
29 9 8
29 10 2
29 11 6
29 12 4
29 13 11
29 14 4
29 15 7
29 16 5
29 17 11
29 18 12
29 19 8
29 20 2
29 21 3
29 22 11
29 23 6
29 24 1
29 25 9
29 26 13
29 27 8
29 28 11
30 0 4
30 1 13
30 2 7
30 3 9
30 4 7
30 5 3
30 6 2
30 7 9
30 8 12
30 9 8
30 10 4
30 11 11
30 12 12
30 13 11
30 14 1
30 15 12
30 16 4
30 17 13
30 18 7
30 19 3
30 20 4
30 21 13
30 22 13
30 23 7
30 24 4
30 25 10
30 26 13
30 27 1
30 28 11
30 29 12
31 0 11
31 1 8
31 2 3
31 3 11
31 4 8
31 5 6
31 6 9
31 7 7
31 8 10
31 9 8
31 10 8
31 11 4
31 12 8
31 13 3
31 14 8
31 15 4
31 16 1
31 17 8
31 18 6
31 19 12
31 20 4
31 21 4
31 22 10
31 23 1
31 24 11
31 25 9
31 26 5
31 27 8
31 28 6
31 29 2
31 30 13
32 0 9
32 1 6
32 2 10
32 3 7
32 4 1
32 5 5
32 6 5
32 7 3
32 8 5
32 9 11
32 10 11
32 11 11
32 12 13
32 13 1
32 14 8
32 15 5
32 16 1
32 17 3
32 18 8
32 19 8
32 20 11
32 21 1
32 22 3
32 23 5
32 24 13
32 25 11
32 26 10
32 27 7
32 28 7
32 29 4
32 30 11
32 31 9
33 0 1
33 1 12
33 2 3
33 3 1
33 4 10
33 5 8
33 6 13
33 7 13
33 8 12
33 9 4
33 10 4
33 11 4
33 12 2
33 13 4
33 14 2
33 15 2
33 16 4
33 17 1
33 18 9
33 19 11
33 20 6
33 21 5
33 22 1
33 23 12
33 24 9
33 25 9
33 26 10
33 27 13
33 28 10
33 29 10
33 30 7
33 31 3
33 32 9
34 0 6
34 1 4
34 2 2
34 3 13
34 4 6
34 5 5
34 6 3
34 7 10
34 8 13
34 9 2
34 10 5
34 11 13
34 12 13
34 13 9
34 14 11
34 15 6
34 16 1
34 17 2
34 18 4
34 19 4
34 20 12
34 21 8
34 22 4
34 23 8
34 24 11
34 25 13
34 26 2
34 27 13
34 28 7
34 29 6
34 30 7
34 31 6
34 32 2
34 33 6
35 0 4
35 1 11
35 2 13
35 3 11
35 4 6
35 5 11
35 6 5
35 7 12
35 8 2
35 9 2
35 10 3
35 11 6
35 12 7
35 13 2
35 14 4
35 15 4
35 16 10
35 17 11
35 18 4
35 19 1
35 20 12
35 21 11
35 22 4
35 23 5
35 24 4
35 25 10
35 26 2
35 27 2
35 28 13
35 29 9
35 30 8
35 31 2
35 32 3
35 33 6
35 34 9
36 0 12
36 1 6
36 2 5
36 3 10
36 4 2
36 5 12
36 6 7
36 7 8
36 8 12
36 9 13
36 10 2
36 11 9
36 12 13
36 13 8
36 14 12
36 15 5
36 16 3
36 17 13
36 18 11
36 19 12
36 20 13
36 21 8
36 22 13
36 23 5
36 24 12
36 25 3
36 26 4
36 27 4
36 28 8
36 29 11
36 30 12
36 31 9
36 32 2
36 33 12
36 34 11
36 35 10
37 0 7
37 1 7
37 2 1
37 3 3
37 4 11
37 5 1
37 6 4
37 7 6
37 8 1
37 9 13
37 10 3
37 11 12
37 12 11
37 13 3
37 14 6
37 15 11
37 16 5
37 17 1
37 18 1
37 19 7
37 20 3
37 21 4
37 22 13
37 23 13
37 24 4
37 25 2
37 26 10
37 27 1
37 28 5
37 29 12
37 30 8
37 31 9
37 32 7
37 33 11
37 34 3
37 35 6
37 36 2
38 0 4
38 1 3
38 2 5
38 3 7
38 4 4
38 5 9
38 6 3
38 7 4
38 8 11
38 9 12
38 10 12
38 11 13
38 12 6
38 13 7
38 14 2
38 15 2
38 16 5
38 17 1
38 18 12
38 19 1
38 20 10
38 21 8
38 22 9
38 23 1
38 24 13
38 25 1
38 26 3
38 27 9
38 28 1
38 29 13
38 30 1
38 31 8
38 32 9
38 33 6
38 34 8
38 35 2
38 36 6
38 37 10
39 0 8
39 1 11
39 2 4
39 3 8
39 4 13
39 5 8
39 6 12
39 7 8
39 8 12
39 9 10
39 10 10
39 11 7
39 12 7
39 13 8
39 14 7
39 15 6
39 16 1
39 17 9
39 18 11
39 19 10
39 20 2
39 21 1
39 22 5
39 23 12
39 24 10
39 25 2
39 26 13
39 27 4
39 28 8
39 29 10
39 30 9
39 31 3
39 32 12
39 33 11
39 34 8
39 35 10
39 36 7
39 37 8
39 38 6
40 0 1
40 1 10
40 2 8
40 3 9
40 4 5
40 5 8
40 6 13
40 7 11
40 8 10
40 9 4
40 10 5
40 11 9
40 12 9
40 13 8
40 14 8
40 15 13
40 16 9
40 17 5
40 18 4
40 19 4
40 20 10
40 21 11
40 22 11
40 23 3
40 24 1
40 25 6
40 26 8
40 27 8
40 28 1
40 29 9
40 30 8
40 31 3
40 32 3
40 33 7
40 34 9
40 35 6
40 36 8
40 37 1
40 38 1
40 39 8
41 0 6
41 1 1
41 2 12
41 3 7
41 4 10
41 5 10
41 6 8
41 7 11
41 8 5
41 9 11
41 10 8
41 11 1
41 12 3
41 13 13
41 14 8
41 15 8
41 16 1
41 17 13
41 18 5
41 19 6
41 20 8
41 21 2
41 22 10
41 23 11
41 24 1
41 25 13
41 26 8
41 27 13
41 28 12
41 29 9
41 30 10
41 31 7
41 32 12
41 33 3
41 34 9
41 35 11
41 36 3
41 37 11
41 38 1
41 39 10
41 40 5
42 0 11
42 1 13
42 2 2
42 3 8
42 4 8
42 5 10
42 6 4
42 7 7
42 8 10
42 9 12
42 10 4
42 11 10
42 12 2
42 13 13
42 14 13
42 15 9
42 16 8
42 17 5
42 18 1
42 19 6
42 20 5
42 21 7
42 22 9
42 23 5
42 24 2
42 25 7
42 26 8
42 27 4
42 28 12
42 29 3
42 30 5
42 31 9
42 32 9
42 33 3
42 34 6
42 35 4
42 36 4
42 37 8
42 38 8
42 39 3
42 40 1
42 41 11
43 0 13
43 1 4
43 2 13
43 3 10
43 4 8
43 5 8
43 6 11
43 7 13
43 8 1
43 9 4
43 10 10
43 11 9
43 12 5
43 13 7
43 14 3
43 15 7
43 16 13
43 17 3
43 18 13
43 19 8
43 20 8
43 21 10
43 22 8
43 23 3
43 24 12
43 25 12
43 26 3
43 27 9
43 28 11
43 29 1
43 30 6
43 31 4
43 32 6
43 33 9
43 34 11
43 35 2
43 36 10
43 37 5
43 38 7
43 39 12
43 40 10
43 41 9
43 42 3
44 0 13
44 1 5
44 2 11
44 3 1
44 4 4
44 5 7
44 6 10
44 7 7
44 8 13
44 9 3
44 10 8
44 11 5
44 12 7
44 13 8
44 14 13
44 15 7
44 16 1
44 17 11
44 18 6
44 19 7
44 20 13
44 21 2
44 22 13
44 23 3
44 24 5
44 25 5
44 26 11
44 27 2
44 28 7
44 29 8
44 30 6
44 31 11
44 32 13
44 33 8
44 34 13
44 35 4
44 36 3
44 37 1
44 38 9
44 39 13
44 40 4
44 41 13
44 42 3
44 43 2
45 0 10
45 1 5
45 2 9
45 3 9
45 4 10
45 5 2
45 6 7
45 7 12
45 8 10
45 9 3
45 10 9
45 11 7
45 12 4
45 13 2
45 14 7
45 15 9
45 16 3
45 17 3
45 18 7
45 19 4
45 20 4
45 21 12
45 22 2
45 23 6
45 24 4
45 25 3
45 26 5
45 27 13
45 28 4
45 29 6
45 30 1
45 31 6
45 32 1
45 33 12
45 34 7
45 35 12
45 36 2
45 37 12
45 38 13
45 39 13
45 40 13
45 41 4
45 42 6
45 43 8
45 44 8
46 0 9
46 1 3
46 2 5
46 3 3
46 4 7
46 5 3
46 6 7
46 7 1
46 8 3
46 9 8
46 10 10
46 11 12
46 12 11
46 13 8
46 14 12
46 15 11
46 16 12
46 17 7
46 18 5
46 19 3
46 20 9
46 21 6
46 22 8
46 23 4
46 24 7
46 25 13
46 26 13
46 27 13
46 28 6
46 29 7
46 30 7
46 31 8
46 32 3
46 33 2
46 34 11
46 35 10
46 36 9
46 37 11
46 38 1
46 39 7
46 40 7
46 41 13
46 42 6
46 43 12
46 44 8
46 45 10
47 0 4
47 1 6
47 2 2
47 3 2
47 4 12
47 5 5
47 6 7
47 7 11
47 8 9
47 9 8
47 10 13
47 11 12
47 12 12
47 13 7
47 14 2
47 15 12
47 16 10
47 17 1
47 18 6
47 19 7
47 20 8
47 21 5
47 22 9
47 23 10
47 24 8
47 25 3
47 26 4
47 27 9
47 28 2
47 29 6
47 30 11
47 31 8
47 32 13
47 33 8
47 34 11
47 35 2
47 36 4
47 37 4
47 38 1
47 39 2
47 40 3
47 41 12
47 42 6
47 43 9
47 44 2
47 45 12
47 46 13
48 0 13
48 1 1
48 2 3
48 3 10
48 4 1
48 5 7
48 6 10
48 7 10
48 8 2
48 9 1
48 10 6
48 11 13
48 12 5
48 13 2
48 14 11
48 15 9
48 16 11
48 17 12
48 18 1
48 19 6
48 20 11
48 21 12
48 22 10
48 23 3
48 24 12
48 25 5
48 26 2
48 27 1
48 28 13
48 29 10
48 30 12
48 31 11
48 32 12
48 33 3
48 34 8
48 35 10
48 36 12
48 37 6
48 38 7
48 39 11
48 40 3
48 41 6
48 42 9
48 43 7
48 44 5
48 45 3
48 46 8
48 47 11
49 0 11
49 1 4
49 2 7
49 3 7
49 4 13
49 5 12
49 6 3
49 7 4
49 8 11
49 9 7
49 10 6
49 11 4
49 12 13
49 13 2
49 14 9
49 15 7
49 16 12
49 17 13
49 18 13
49 19 6
49 20 10
49 21 10
49 22 2
49 23 9
49 24 7
49 25 10
49 26 2
49 27 5
49 28 11
49 29 5
49 30 2
49 31 9
49 32 8
49 33 13
49 34 10
49 35 4
49 36 3
49 37 3
49 38 10
49 39 10
49 40 7
49 41 10
49 42 13
49 43 6
49 44 6
49 45 13
49 46 3
49 47 11
49 48 9
50 0 2
50 1 5
50 2 11
50 3 8
50 4 1
50 5 2
50 6 12
50 7 9
50 8 12
50 9 12
50 10 6
50 11 8
50 12 13
50 13 13
50 14 9
50 15 5
50 16 1
50 17 4
50 18 7
50 19 6
50 20 9
50 21 11
50 22 4
50 23 3
50 24 3
50 25 13
50 26 10
50 27 6
50 28 5
50 29 2
50 30 8
50 31 13
50 32 3
50 33 9
50 34 5
50 35 9
50 36 6
50 37 6
50 38 5
50 39 8
50 40 7
50 41 6
50 42 13
50 43 2
50 44 7
50 45 4
50 46 13
50 47 4
50 48 2
50 49 6
51 0 8
51 1 5
51 2 10
51 3 7
51 4 7
51 5 2
51 6 8
51 7 5
51 8 2
51 9 6
51 10 3
51 11 10
51 12 4
51 13 11
51 14 8
51 15 13
51 16 3
51 17 5
51 18 7
51 19 1
51 20 10
51 21 9
51 22 1
51 23 2
51 24 7
51 25 5
51 26 9
51 27 13
51 28 9
51 29 2
51 30 9
51 31 2
51 32 7
51 33 7
51 34 5
51 35 2
51 36 2
51 37 13
51 38 7
51 39 12
51 40 5
51 41 12
51 42 8
51 43 7
51 44 12
51 45 1
51 46 3
51 47 1
51 48 8
51 49 13
51 50 7
52 0 2
52 1 13
52 2 8
52 3 7
52 4 6
52 5 8
52 6 10
52 7 12
52 8 10
52 9 2
52 10 6
52 11 8
52 12 13
52 13 6
52 14 5
52 15 12
52 16 5
52 17 8
52 18 4
52 19 1
52 20 1
52 21 10
52 22 8
52 23 9
52 24 7
52 25 4
52 26 6
52 27 7
52 28 7
52 29 7
52 30 13
52 31 2
52 32 6
52 33 5
52 34 7
52 35 7
52 36 9
52 37 13
52 38 9
52 39 11
52 40 10
52 41 9
52 42 6
52 43 5
52 44 12
52 45 11
52 46 11
52 47 3
52 48 11
52 49 4
52 50 8
52 51 8
53 0 11
53 1 13
53 2 2
53 3 4
53 4 13
53 5 9
53 6 9
53 7 7
53 8 8
53 9 10
53 10 8
53 11 4
53 12 13
53 13 4
53 14 6
53 15 1
53 16 13
53 17 4
53 18 3
53 19 7
53 20 8
53 21 10
53 22 10
53 23 13
53 24 5
53 25 7
53 26 6
53 27 6
53 28 7
53 29 2
53 30 3
53 31 3
53 32 9
53 33 6
53 34 3
53 35 13
53 36 4
53 37 9
53 38 2
53 39 7
53 40 4
53 41 9
53 42 10
53 43 2
53 44 4
53 45 8
53 46 10
53 47 6
53 48 13
53 49 13
53 50 2
53 51 1
53 52 5
54 0 5
54 1 8
54 2 8
54 3 1
54 4 3
54 5 4
54 6 9
54 7 13
54 8 8
54 9 7
54 10 1
54 11 9
54 12 6
54 13 2
54 14 2
54 15 11
54 16 4
54 17 8
54 18 1
54 19 11
54 20 4
54 21 3
54 22 13
54 23 11
54 24 10
54 25 7
54 26 4
54 27 3
54 28 6
54 29 9
54 30 13
54 31 3
54 32 8
54 33 3
54 34 9
54 35 12
54 36 10
54 37 10
54 38 6
54 39 13
54 40 10
54 41 2
54 42 8
54 43 10
54 44 12
54 45 4
54 46 7
54 47 1
54 48 8
54 49 10
54 50 1
54 51 2
54 52 11
54 53 3
55 0 3
55 1 3
55 2 6
55 3 13
55 4 4
55 5 4
55 6 6
55 7 7
55 8 6
55 9 8
55 10 1
55 11 6
55 12 11
55 13 11
55 14 11
55 15 8
55 16 12
55 17 13
55 18 13
55 19 9
55 20 4
55 21 6
55 22 8
55 23 4
55 24 6
55 25 4
55 26 12
55 27 6
55 28 2
55 29 1
55 30 2
55 31 5
55 32 1
55 33 13
55 34 2
55 35 12
55 36 3
55 37 10
55 38 9
55 39 9
55 40 11
55 41 1
55 42 10
55 43 13
55 44 7
55 45 12
55 46 12
55 47 8
55 48 4
55 49 13
55 50 13
55 51 12
55 52 9
55 53 3
55 54 7
56 0 7
56 1 9
56 2 9
56 3 7
56 4 13
56 5 5
56 6 2
56 7 3
56 8 13
56 9 9
56 10 9
56 11 12
56 12 1
56 13 11
56 14 1
56 15 1
56 16 6
56 17 1
56 18 3
56 19 6
56 20 10
56 21 6
56 22 13
56 23 4
56 24 12
56 25 10
56 26 10
56 27 9
56 28 5
56 29 3
56 30 8
56 31 6
56 32 10
56 33 2
56 34 12
56 35 9
56 36 11
56 37 4
56 38 6
56 39 4
56 40 5
56 41 12
56 42 7
56 43 10
56 44 5
56 45 11
56 46 1
56 47 1
56 48 3
56 49 3
56 50 3
56 51 3
56 52 6
56 53 11
56 54 11
56 55 11
57 0 3
57 1 13
57 2 7
57 3 2
57 4 7
57 5 3
57 6 1
57 7 3
57 8 3
57 9 12
57 10 5
57 11 5
57 12 10
57 13 7
57 14 10
57 15 6
57 16 4
57 17 6
57 18 7
57 19 13
57 20 9
57 21 7
57 22 7
57 23 6
57 24 6
57 25 6
57 26 7
57 27 4
57 28 11
57 29 13
57 30 11
57 31 10
57 32 10
57 33 4
57 34 9
57 35 4
57 36 4
57 37 9
57 38 11
57 39 2
57 40 3
57 41 4
57 42 13
57 43 6
57 44 5
57 45 3
57 46 2
57 47 1
57 48 5
57 49 5
57 50 2
57 51 8
57 52 13
57 53 1
57 54 8
57 55 1
57 56 7
58 0 2
58 1 12
58 2 3
58 3 3
58 4 9
58 5 2
58 6 1
58 7 13
58 8 8
58 9 6
58 10 2
58 11 7
58 12 3
58 13 12
58 14 5
58 15 5
58 16 8
58 17 1
58 18 6
58 19 7
58 20 5
58 21 13
58 22 3
58 23 6
58 24 2
58 25 9
58 26 9
58 27 11
58 28 1
58 29 2
58 30 13
58 31 12
58 32 4
58 33 13
58 34 8
58 35 11
58 36 3
58 37 5
58 38 11
58 39 6
58 40 2
58 41 9
58 42 7
58 43 5
58 44 1
58 45 13
58 46 9
58 47 3
58 48 11
58 49 2
58 50 3
58 51 9
58 52 3
58 53 1
58 54 11
58 55 1
58 56 13
58 57 5
59 0 13
59 1 10
59 2 9
59 3 11
59 4 4
59 5 6
59 6 2
59 7 9
59 8 2
59 9 2
59 10 6
59 11 9
59 12 6
59 13 2
59 14 9
59 15 10
59 16 13
59 17 7
59 18 10
59 19 2
59 20 3
59 21 8
59 22 2
59 23 2
59 24 6
59 25 3
59 26 8
59 27 1
59 28 6
59 29 13
59 30 13
59 31 4
59 32 1
59 33 7
59 34 8
59 35 2
59 36 13
59 37 2
59 38 7
59 39 8
59 40 4
59 41 6
59 42 8
59 43 5
59 44 6
59 45 10
59 46 13
59 47 11
59 48 7
59 49 12
59 50 5
59 51 2
59 52 6
59 53 10
59 54 13
59 55 12
59 56 10
59 57 2
59 58 9
